<number of tasks>
45

<cycle time>
79

<task times>
1 9
2 9
3 10
4 10
5 17
6 17
7 13
8 13
9 20
10 20
11 10
12 11
13 6
14 22
15 11
16 19
17 12
18 3
19 7
20 4
21 55
22 14
23 27
24 29
25 26
26 6
27 5
28 24
29 4
30 5
31 7
32 4
33 15
34 3
35 7
36 9
37 4
38 7
39 5
40 4
41 21
42 12
43 6
44 5
45 5

<precedence relations>
1,3
1,7
2,4
2,8
3,5
4,6
5,9
6,10
7,9
7,14
8,10
8,14
9,41
10,41
11,13
12,13
12,37
13,14
13,15
14,17
14,25
14,29
14,30
14,31
14,32
15,16
15,18
15,23
15,24
16,19
17,26
17,27
18,19
19,20
19,33
20,21
21,22
22,28
23,33
24,33
25,26
26,38
27,28
27,33
28,38
29,41
30,41
31,41
32,41
33,34
33,35
33,36
34,38
35,40
36,38
37,43
38,40
39,41
40,41
41,42
42,44
42,45

<setup times forward>
1,4:2
1,6:1
1,8:4
1,10:3
1,16:4
1,18:4
1,19:1
1,20:1
1,21:1
1,22:3
1,23:1
1,24:2
1,37:2
1,39:4
1,43:2
2,4:2
2,5:4
2,8:4
2,9:1
2,16:4
2,18:4
2,19:1
2,20:1
2,21:1
2,22:3
2,23:1
2,24:2
2,37:2
2,39:4
2,43:2
3,4:2
3,5:4
3,6:1
3,8:4
3,10:3
3,14:4
3,16:4
3,17:1
3,18:4
3,19:1
3,20:1
3,21:1
3,22:3
3,23:1
3,24:2
3,25:2
3,26:3
3,27:3
3,28:1
3,29:1
3,30:1
3,31:1
3,32:2
3,33:3
3,34:3
3,35:3
3,36:3
3,37:2
3,38:1
3,39:4
3,40:1
3,43:2
4,1:2
4,3:2
4,5:6
4,6:3
4,7:2
4,8:6
4,9:3
4,11:2
4,12:2
4,13:2
4,14:6
4,15:2
4,16:6
4,17:3
4,18:6
4,19:3
4,20:3
4,21:3
4,22:1
4,23:3
4,26:1
4,27:1
4,28:1
4,29:3
4,30:3
4,31:3
4,33:1
4,34:1
4,35:1
4,36:1
4,38:1
4,39:6
4,40:1
5,2:4
5,4:6
5,6:3
5,7:4
5,9:3
5,10:7
5,11:4
5,12:4
5,13:4
5,15:4
5,17:3
5,19:3
5,20:3
5,21:3
5,22:7
5,23:3
5,24:6
5,25:6
5,26:7
5,27:7
5,28:5
5,29:3
5,30:3
5,31:3
5,32:6
5,33:7
5,34:7
5,35:7
5,36:7
5,37:6
5,38:5
5,40:5
5,43:6
6,1:1
6,3:1
6,5:3
6,7:1
6,8:3
6,10:4
6,11:1
6,12:1
6,13:1
6,14:3
6,15:1
6,16:3
6,18:3
6,22:4
6,24:3
6,25:3
6,26:4
6,27:4
6,28:2
6,32:3
6,33:4
6,34:4
6,35:4
6,36:4
6,37:3
6,38:2
6,39:3
6,40:2
6,43:3
7,4:2
7,5:4
7,6:1
7,8:4
7,9:1
7,10:3
7,14:4
7,16:4
7,18:4
7,19:1
7,20:1
7,21:1
7,22:3
7,23:1
7,24:2
7,37:2
7,39:4
7,43:2
8,1:4
8,3:4
8,4:6
8,6:3
8,7:4
8,9:3
8,10:7
8,11:4
8,12:4
8,13:4
8,15:4
8,19:3
8,20:3
8,21:3
8,22:7
8,23:3
8,24:6
8,37:6
8,43:6
9,2:1
9,4:3
9,8:3
9,10:4
9,11:1
9,12:1
9,13:1
9,14:3
9,15:1
9,16:3
9,18:3
9,22:4
9,24:3
9,25:3
9,26:4
9,27:4
9,28:2
9,32:3
9,33:4
9,34:4
9,35:4
9,36:4
9,37:3
9,38:2
9,39:3
9,40:2
9,41:2
9,43:3
10,1:3
10,3:3
10,5:7
10,7:3
10,9:4
10,11:3
10,12:3
10,13:3
10,14:7
10,15:3
10,16:7
10,17:4
10,18:7
10,19:4
10,20:4
10,21:4
10,23:4
10,24:1
10,25:1
10,28:2
10,29:4
10,30:4
10,31:4
10,32:1
10,37:1
10,38:2
10,39:7
10,40:2
10,41:2
10,43:1
11,4:2
11,5:4
11,6:1
11,8:4
11,9:1
11,10:3
11,37:2
11,39:4
11,43:2
12,4:2
12,5:4
12,6:1
12,8:4
12,9:1
12,10:3
12,37:2
12,39:4
13,4:2
13,5:4
13,6:1
13,8:4
13,9:1
13,10:3
13,14:4
13,37:2
13,39:4
13,43:2
14,3:4
14,4:6
14,6:3
14,9:3
14,10:7
14,15:4
14,17:3
14,19:3
14,20:3
14,21:3
14,22:7
14,23:3
14,24:6
14,25:6
14,29:3
14,30:3
14,31:3
14,32:6
14,37:6
14,43:6
15,4:2
15,5:4
15,6:1
15,8:4
15,9:1
15,10:3
15,14:4
15,16:4
15,17:1
15,18:4
15,23:1
15,24:2
15,25:2
15,26:3
15,27:3
15,29:1
15,30:1
15,31:1
15,32:2
15,37:2
15,39:4
15,43:2
16,1:4
16,2:4
16,3:4
16,4:6
16,6:3
16,7:4
16,9:3
16,10:7
16,17:3
16,19:3
16,23:3
16,24:6
16,25:6
16,26:7
16,27:7
16,29:3
16,30:3
16,31:3
16,32:6
16,37:6
16,43:6
17,3:1
17,4:3
17,5:3
17,10:4
17,15:1
17,16:3
17,18:3
17,22:4
17,24:3
17,25:3
17,26:4
17,27:4
17,32:3
17,37:3
17,39:3
17,43:3
18,1:4
18,2:4
18,3:4
18,4:6
18,6:3
18,7:4
18,9:3
18,10:7
18,17:3
18,19:3
18,23:3
18,24:6
18,25:6
18,26:7
18,27:7
18,29:3
18,30:3
18,31:3
18,32:6
18,37:6
18,43:6
19,1:1
19,2:1
19,3:1
19,4:3
19,5:3
19,7:1
19,8:3
19,10:4
19,14:3
19,24:3
19,25:3
19,26:4
19,27:4
19,32:3
19,33:4
19,37:3
19,39:3
19,43:3
20,1:1
20,2:1
20,3:1
20,4:3
20,5:3
20,7:1
20,8:3
20,10:4
20,14:3
20,24:3
20,25:3
20,26:4
20,27:4
20,32:3
20,33:4
20,34:4
20,35:4
20,36:4
20,37:3
20,39:3
20,43:3
21,1:1
21,2:1
21,3:1
21,4:3
21,5:3
21,7:1
21,8:3
21,10:4
21,14:3
21,22:4
21,24:3
21,25:3
21,26:4
21,27:4
21,32:3
21,33:4
21,34:4
21,35:4
21,36:4
21,37:3
21,39:3
21,43:3
22,1:3
22,2:3
22,3:3
22,4:1
22,5:7
22,6:4
22,7:3
22,8:7
22,9:4
22,14:7
22,17:4
22,23:4
22,24:1
22,25:1
22,28:2
22,29:4
22,30:4
22,31:4
22,32:1
22,37:1
22,39:7
22,43:1
23,1:1
23,2:1
23,3:1
23,4:3
23,5:3
23,7:1
23,8:3
23,10:4
23,14:3
23,16:3
23,18:3
23,22:4
23,24:3
23,25:3
23,26:4
23,27:4
23,28:2
23,32:3
23,33:4
23,37:3
23,39:3
23,43:3
24,1:2
24,2:2
24,3:2
24,5:6
24,6:3
24,7:2
24,8:6
24,9:3
24,10:1
24,14:6
24,16:6
24,17:3
24,18:6
24,19:3
24,20:3
24,21:3
24,22:1
24,23:3
24,26:1
24,27:1
24,28:1
24,29:3
24,30:3
24,31:3
24,33:1
24,39:6
25,3:2
25,5:6
25,6:3
25,9:3
25,10:1
25,15:2
25,16:6
25,17:3
25,18:6
25,19:3
25,20:3
25,21:3
25,22:1
25,23:3
25,26:1
25,27:1
25,28:1
25,29:3
25,30:3
25,31:3
25,33:1
25,34:1
25,35:1
25,36:1
25,39:6
26,3:3
26,4:1
26,5:7
26,6:4
26,9:4
26,15:3
26,16:7
26,18:7
26,19:4
26,20:4
26,21:4
26,23:4
26,24:1
26,28:2
26,29:4
26,30:4
26,31:4
26,32:1
26,37:1
26,38:2
26,39:7
26,43:1
27,3:3
27,4:1
27,5:7
27,6:4
27,9:4
27,15:3
27,16:7
27,18:7
27,19:4
27,20:4
27,21:4
27,23:4
27,24:1
27,25:1
27,28:2
27,29:4
27,30:4
27,31:4
27,32:1
27,37:1
27,39:7
27,43:1
28,3:1
28,4:1
28,5:5
28,6:2
28,9:2
28,10:2
28,23:2
28,24:1
28,25:1
28,26:2
28,29:2
28,30:2
28,31:2
28,32:1
28,33:2
28,34:2
28,35:2
28,36:2
28,37:1
28,39:5
28,43:1
29,3:1
29,4:3
29,5:3
29,10:4
29,15:1
29,16:3
29,18:3
29,22:4
29,24:3
29,25:3
29,26:4
29,27:4
29,28:2
29,32:3
29,33:4
29,34:4
29,35:4
29,36:4
29,37:3
29,38:2
29,39:3
29,40:2
29,41:2
29,43:3
30,3:1
30,4:3
30,5:3
30,10:4
30,15:1
30,16:3
30,18:3
30,22:4
30,24:3
30,25:3
30,26:4
30,27:4
30,28:2
30,32:3
30,33:4
30,34:4
30,35:4
30,36:4
30,37:3
30,38:2
30,39:3
30,40:2
30,41:2
30,43:3
31,3:1
31,4:3
31,5:3
31,10:4
31,15:1
31,16:3
31,18:3
31,22:4
31,24:3
31,25:3
31,26:4
31,27:4
31,28:2
31,32:3
31,33:4
31,34:4
31,35:4
31,36:4
31,37:3
31,38:2
31,39:3
31,40:2
31,41:2
31,43:3
32,3:2
32,5:6
32,6:3
32,9:3
32,10:1
32,15:2
32,16:6
32,17:3
32,18:6
32,19:3
32,20:3
32,21:3
32,22:1
32,23:3
32,26:1
32,27:1
32,28:1
32,29:3
32,30:3
32,31:3
32,33:1
32,34:1
32,35:1
32,36:1
32,38:1
32,39:6
32,40:1
32,41:1
33,3:3
33,4:1
33,5:7
33,6:4
33,9:4
33,20:4
33,21:4
33,25:1
33,28:2
33,29:4
33,30:4
33,31:4
33,32:1
33,37:1
33,39:7
33,43:1
34,3:3
34,4:1
34,5:7
34,6:4
34,9:4
34,20:4
34,21:4
34,25:1
34,28:2
34,29:4
34,30:4
34,31:4
34,32:1
34,37:1
34,38:2
34,39:7
34,43:1
35,3:3
35,4:1
35,5:7
35,6:4
35,9:4
35,20:4
35,21:4
35,25:1
35,28:2
35,29:4
35,30:4
35,31:4
35,32:1
35,37:1
35,38:2
35,39:7
35,40:2
35,43:1
36,3:3
36,4:1
36,5:7
36,6:4
36,9:4
36,20:4
36,21:4
36,25:1
36,28:2
36,29:4
36,30:4
36,31:4
36,32:1
36,37:1
36,38:2
36,39:7
36,43:1
37,1:2
37,2:2
37,3:2
37,5:6
37,6:3
37,7:2
37,8:6
37,9:3
37,10:1
37,11:2
37,13:2
37,14:6
37,15:2
37,16:6
37,17:3
37,18:6
37,19:3
37,20:3
37,21:3
37,22:1
37,23:3
37,26:1
37,27:1
37,28:1
37,29:3
37,30:3
37,31:3
37,33:1
37,34:1
37,35:1
37,36:1
37,38:1
37,39:6
37,40:1
37,41:1
37,42:1
37,44:1
37,45:1
38,3:1
38,4:1
38,5:5
38,6:2
38,9:2
38,10:2
38,29:2
38,30:2
38,31:2
38,32:1
38,35:2
38,37:1
38,39:5
38,43:1
39,1:4
39,2:4
39,3:4
39,4:6
39,6:3
39,7:4
39,9:3
39,10:7
39,11:4
39,12:4
39,13:4
39,15:4
39,17:3
39,19:3
39,20:3
39,21:3
39,22:7
39,23:3
39,24:6
39,25:6
39,26:7
39,27:7
39,28:5
39,29:3
39,30:3
39,31:3
39,32:6
39,33:7
39,34:7
39,35:7
39,36:7
39,37:6
39,38:5
39,40:5
39,41:5
39,43:6
40,3:1
40,4:1
40,5:5
40,6:2
40,9:2
40,10:2
40,29:2
40,30:2
40,31:2
40,32:1
40,37:1
40,39:5
40,43:1
41,37:1
41,43:1
42,37:1
42,43:1
43,1:2
43,2:2
43,3:2
43,5:6
43,6:3
43,7:2
43,8:6
43,9:3
43,10:1
43,11:2
43,13:2
43,14:6
43,15:2
43,16:6
43,17:3
43,18:6
43,19:3
43,20:3
43,21:3
43,22:1
43,23:3
43,26:1
43,27:1
43,28:1
43,29:3
43,30:3
43,31:3
43,33:1
43,34:1
43,35:1
43,36:1
43,38:1
43,39:6
43,40:1
43,41:1
43,42:1
43,44:1
43,45:1
44,37:1
44,43:1
45,37:1
45,43:1

<setup times backward>
1,4:2
1,10:3
1,22:3
1,24:2
1,37:2
1,43:2
2,22:3
2,24:2
2,37:2
2,43:2
3,4:2
3,10:3
3,22:3
3,24:2
3,25:2
3,26:3
3,27:3
3,28:1
3,32:2
3,33:3
3,34:3
3,35:3
3,36:3
3,37:2
3,38:1
3,40:1
3,43:2
4,22:1
4,26:1
4,27:1
4,33:1
4,34:1
4,35:1
4,36:1
5,1:4
5,2:4
5,3:4
5,4:6
5,6:3
5,7:4
5,10:7
5,11:4
5,12:4
5,13:4
5,15:4
5,17:3
5,19:3
5,20:3
5,21:3
5,22:7
5,23:3
5,24:6
5,25:6
5,26:7
5,27:7
5,28:5
5,29:3
5,30:3
5,31:3
5,32:6
5,33:7
5,34:7
5,35:7
5,36:7
5,37:6
5,38:5
5,40:5
5,43:6
6,1:1
6,2:1
6,3:1
6,4:3
6,7:1
6,11:1
6,12:1
6,13:1
6,15:1
6,22:4
6,24:3
6,25:3
6,26:4
6,27:4
6,28:2
6,32:3
6,33:4
6,34:4
6,35:4
6,36:4
6,37:3
6,38:2
6,40:2
6,43:3
7,4:2
7,10:3
7,22:3
7,24:2
7,37:2
7,43:2
8,1:4
8,2:4
8,3:4
8,4:6
8,6:3
8,7:4
8,9:3
8,11:4
8,12:4
8,13:4
8,15:4
8,19:3
8,20:3
8,21:3
8,22:7
8,23:3
8,24:6
8,37:6
8,43:6
9,1:1
9,2:1
9,3:1
9,4:3
9,7:1
9,10:4
9,11:1
9,12:1
9,13:1
9,15:1
9,22:4
9,24:3
9,25:3
9,26:4
9,27:4
9,28:2
9,32:3
9,33:4
9,34:4
9,35:4
9,36:4
9,37:3
9,38:2
9,40:2
9,43:3
11,4:2
11,10:3
11,37:2
11,43:2
12,4:2
12,10:3
13,4:2
13,10:3
13,37:2
13,43:2
14,1:4
14,2:4
14,3:4
14,4:6
14,6:3
14,7:4
14,9:3
14,10:7
14,11:4
14,12:4
14,13:4
14,15:4
14,19:3
14,20:3
14,21:3
14,22:7
14,23:3
14,24:6
14,37:6
14,43:6
15,4:2
15,10:3
15,25:2
15,26:3
15,27:3
15,32:2
15,37:2
15,43:2
16,1:4
16,2:4
16,3:4
16,4:6
16,6:3
16,7:4
16,9:3
16,10:7
16,11:4
16,12:4
16,13:4
16,15:4
16,17:3
16,23:3
16,24:6
16,25:6
16,26:7
16,27:7
16,29:3
16,30:3
16,31:3
16,32:6
16,37:6
16,43:6
17,1:1
17,2:1
17,3:1
17,4:3
17,7:1
17,10:4
17,11:1
17,12:1
17,13:1
17,15:1
17,22:4
17,24:3
17,25:3
17,32:3
17,37:3
17,43:3
18,1:4
18,2:4
18,3:4
18,4:6
18,6:3
18,7:4
18,9:3
18,10:7
18,11:4
18,12:4
18,13:4
18,15:4
18,17:3
18,23:3
18,24:6
18,25:6
18,26:7
18,27:7
18,29:3
18,30:3
18,31:3
18,32:6
18,37:6
18,43:6
19,1:1
19,2:1
19,3:1
19,4:3
19,7:1
19,10:4
19,11:1
19,12:1
19,13:1
19,15:1
19,24:3
19,25:3
19,26:4
19,27:4
19,32:3
19,37:3
19,43:3
20,1:1
20,2:1
20,3:1
20,4:3
20,7:1
20,10:4
20,11:1
20,12:1
20,13:1
20,15:1
20,24:3
20,25:3
20,26:4
20,27:4
20,32:3
20,33:4
20,34:4
20,35:4
20,36:4
20,37:3
20,43:3
21,1:1
21,2:1
21,3:1
21,4:3
21,7:1
21,10:4
21,11:1
21,12:1
21,13:1
21,15:1
21,24:3
21,25:3
21,26:4
21,27:4
21,32:3
21,33:4
21,34:4
21,35:4
21,36:4
21,37:3
21,43:3
23,1:1
23,2:1
23,3:1
23,4:3
23,7:1
23,10:4
23,11:1
23,12:1
23,13:1
23,15:1
23,22:4
23,24:3
23,25:3
23,26:4
23,27:4
23,28:2
23,32:3
23,37:3
23,43:3
24,10:1
24,22:1
24,26:1
24,27:1
25,10:1
25,22:1
25,27:1
25,33:1
25,34:1
25,35:1
25,36:1
28,4:1
28,10:2
28,22:2
28,24:1
28,25:1
28,26:2
28,27:2
28,32:1
28,33:2
28,34:2
28,35:2
28,36:2
28,37:1
28,43:1
29,1:1
29,2:1
29,3:1
29,4:3
29,7:1
29,10:4
29,11:1
29,12:1
29,13:1
29,15:1
29,22:4
29,24:3
29,25:3
29,26:4
29,27:4
29,28:2
29,32:3
29,33:4
29,34:4
29,35:4
29,36:4
29,37:3
29,38:2
29,40:2
29,43:3
30,1:1
30,2:1
30,3:1
30,4:3
30,7:1
30,10:4
30,11:1
30,12:1
30,13:1
30,15:1
30,22:4
30,24:3
30,25:3
30,26:4
30,27:4
30,28:2
30,32:3
30,33:4
30,34:4
30,35:4
30,36:4
30,37:3
30,38:2
30,40:2
30,43:3
31,1:1
31,2:1
31,3:1
31,4:3
31,7:1
31,10:4
31,11:1
31,12:1
31,13:1
31,15:1
31,22:4
31,24:3
31,25:3
31,26:4
31,27:4
31,28:2
31,32:3
31,33:4
31,34:4
31,35:4
31,36:4
31,37:3
31,38:2
31,40:2
31,43:3
32,10:1
32,22:1
32,26:1
32,27:1
32,33:1
32,34:1
32,35:1
32,36:1
37,10:1
37,22:1
37,26:1
37,27:1
37,33:1
37,34:1
37,35:1
37,36:1
38,4:1
38,10:2
38,22:2
38,24:1
38,25:1
38,26:2
38,27:2
38,32:1
38,33:2
38,34:2
38,35:2
38,36:2
38,37:1
38,43:1
39,1:4
39,2:4
39,3:4
39,4:6
39,6:3
39,7:4
39,9:3
39,10:7
39,11:4
39,12:4
39,13:4
39,15:4
39,17:3
39,19:3
39,20:3
39,21:3
39,22:7
39,23:3
39,24:6
39,25:6
39,26:7
39,27:7
39,28:5
39,29:3
39,30:3
39,31:3
39,32:6
39,33:7
39,34:7
39,35:7
39,36:7
39,37:6
39,38:5
39,40:5
39,43:6
40,4:1
40,10:2
40,22:2
40,24:1
40,25:1
40,26:2
40,27:2
40,32:1
40,33:2
40,34:2
40,35:2
40,36:2
40,37:1
40,43:1
41,4:1
41,10:2
41,22:2
41,24:1
41,25:1
41,26:2
41,27:2
41,32:1
41,33:2
41,34:2
41,35:2
41,36:2
41,37:1
41,43:1
42,4:1
42,10:2
42,22:2
42,24:1
42,25:1
42,26:2
42,27:2
42,32:1
42,33:2
42,34:2
42,35:2
42,36:2
42,37:1
42,43:1
43,10:1
43,22:1
43,26:1
43,27:1
43,33:1
43,34:1
43,35:1
43,36:1
44,4:1
44,10:2
44,22:2
44,24:1
44,25:1
44,26:2
44,27:2
44,32:1
44,33:2
44,34:2
44,35:2
44,36:2
44,37:1
44,43:1
45,4:1
45,10:2
45,22:2
45,24:1
45,25:1
45,26:2
45,27:2
45,32:1
45,33:2
45,34:2
45,35:2
45,36:2
45,37:1
45,43:1

<end>

<optimal SALBP-1 value>
7


<rand seed>
467321153

<Lower Bounds>
Lm1=7
Lms1=7
Lm2=1
Lm3=2
Lm4=7
Best=7

<Optimal Stations (Iterations: 10)>
9
